Pt  O  C 
 1.0000000000000000
    16.9069231381703418    0.0000000000000000    0.0000000000000000
     1.4089102615141949   14.0184801021722798    0.0000000000000000
     0.0000000000000000    0.0000000000000000   32.8111665263775123
 138   1   1
Selective dynamics
Cartesian
  2.8178205200000002  3.1152177999999999 12.0000000000000000   F   F   F
  1.4089102600000001  5.5224315600000002 12.4005075700000003   F   F   F
  2.8178205200000002  7.9296453099999997 12.8010151400000005   F   F   F
  1.4089102600000001 10.3368590699999992 13.2015227100000008   F   F   F
  2.8178205200000002 12.7440728199999995 13.6020302799999993   F   F   F
  2.8178205200000002  1.1328064700000000 14.0025378499999995   F   F   F
  1.4089102600000001  3.5400202300000001 14.4030454199999998   F   F   F
  2.8178205200000002  5.9472339800000000 14.8035529900000000   F   F   F
  1.4089102600000001  8.3544477399999995 15.2040605600000003   F   F   F
  2.8178205200000002 10.7616614899999998 15.6045681199999997   F   F   F
  1.4089102600000001 13.1688752499999993 16.0050756900000017   F   F   F
  1.4089102600000001  1.5576089000000000 16.4055832600000002   F   F   F
  2.8178205200000002  3.9648226599999998 16.8060908299999987   F   F   F
  1.4089102600000001  6.3720364099999998 17.2065984000000007   F   F   F
  2.8178205200000002  8.7792501600000001 17.6071059699999992   F   F   F
  1.4089102600000001 11.1864639199999996 18.0076135400000013   F   F   F
  2.8178205200000002 13.5936776699999999 18.4081211099999997   F   F   F
  2.8178205200000002  1.9824113299999999 18.8086286800000018   T   T   T
  1.4089102600000001  4.3896250800000001 19.2091362500000002   T   T   T
  2.8178205200000002  6.7968388400000004 19.6096438199999987   T   T   T
  1.4089102600000001  9.2040525899999999 20.0101513900000008   T   T   T
  2.8178205200000002 11.6112663499999993 20.4106589599999992   T   T   T
  0.0000000000000000  0.0000000000000000 20.8111665300000013   T   T   T
  5.6356410500000003  3.1152177999999999 12.0000000000000000   F   F   F
  4.2267307799999996  5.5224315600000002 12.4005075700000003   F   F   F
  5.6356410500000003  7.9296453099999997 12.8010151400000005   F   F   F
  4.2267307799999996 10.3368590699999992 13.2015227100000008   F   F   F
  5.6356410500000003 12.7440728199999995 13.6020302799999993   F   F   F
  5.6356410500000003  1.1328064700000000 14.0025378499999995   F   F   F
  4.2267307799999996  3.5400202300000001 14.4030454199999998   F   F   F
  5.6356410500000003  5.9472339800000000 14.8035529900000000   F   F   F
  4.2267307799999996  8.3544477399999995 15.2040605600000003   F   F   F
  5.6356410500000003 10.7616614899999998 15.6045681199999997   F   F   F
  4.2267307799999996 13.1688752499999993 16.0050756900000017   F   F   F
  4.2267307799999996  1.5576089000000000 16.4055832600000002   F   F   F
  5.6356410500000003  3.9648226599999998 16.8060908299999987   F   F   F
  4.2267307799999996  6.3720364099999998 17.2065984000000007   F   F   F
  5.6356410500000003  8.7792501600000001 17.6071059699999992   F   F   F
  4.2267307799999996 11.1864639199999996 18.0076135400000013   F   F   F
  5.6356410500000003 13.5936776699999999 18.4081211099999997   F   F   F
  5.6356410500000003  1.9824113299999999 18.8086286800000018   T   T   T
  4.2267307799999996  4.3896250800000001 19.2091362500000002   T   T   T
  5.6356410500000003  6.7968388400000004 19.6096438199999987   T   T   T
  4.2267307799999996  9.2040525899999999 20.0101513900000008   T   T   T
  5.6356410500000003 11.6112663499999993 20.4106589599999992   T   T   T
  2.8178205200000002  0.0000000000000000 20.8111665300000013   T   T   T
  8.4534615700000000  3.1152177999999999 12.0000000000000000   F   F   F
  7.0445513100000001  5.5224315600000002 12.4005075700000003   F   F   F
  8.4534615700000000  7.9296453099999997 12.8010151400000005   F   F   F
  7.0445513100000001 10.3368590699999992 13.2015227100000008   F   F   F
  8.4534615700000000 12.7440728199999995 13.6020302799999993   F   F   F
  8.4534615700000000  1.1328064700000000 14.0025378499999995   F   F   F
  7.0445513100000001  3.5400202300000001 14.4030454199999998   F   F   F
  8.4534615700000000  5.9472339800000000 14.8035529900000000   F   F   F
  7.0445513100000001  8.3544477399999995 15.2040605600000003   F   F   F
  8.4534615700000000 10.7616614899999998 15.6045681199999997   F   F   F
  7.0445513100000001 13.1688752499999993 16.0050756900000017   F   F   F
  7.0445513100000001  1.5576089000000000 16.4055832600000002   F   F   F
  8.4534615700000000  3.9648226599999998 16.8060908299999987   F   F   F
  7.0445513100000001  6.3720364099999998 17.2065984000000007   F   F   F
  8.4534615700000000  8.7792501600000001 17.6071059699999992   F   F   F
  7.0445513100000001 11.1864639199999996 18.0076135400000013   F   F   F
  8.4534615700000000 13.5936776699999999 18.4081211099999997   F   F   F
  8.4534615700000000  1.9824113299999999 18.8086286800000018   T   T   T
  7.0445513100000001  4.3896250800000001 19.2091362500000002   T   T   T
  8.4534615700000000  6.7968388400000004 19.6096438199999987   T   T   T
  7.0445513100000001  9.2040525899999999 20.0101513900000008   T   T   T
  8.4534615700000000 11.6112663499999993 20.4106589599999992   T   T   T
 11.2712820899999997  3.1152177999999999 12.0000000000000000   F   F   F
  9.8623718300000007  5.5224315600000002 12.4005075700000003   F   F   F
 11.2712820899999997  7.9296453099999997 12.8010151400000005   F   F   F
  9.8623718300000007 10.3368590699999992 13.2015227100000008   F   F   F
 11.2712820899999997 12.7440728199999995 13.6020302799999993   F   F   F
 11.2712820899999997  1.1328064700000000 14.0025378499999995   F   F   F
  9.8623718300000007  3.5400202300000001 14.4030454199999998   F   F   F
 11.2712820899999997  5.9472339800000000 14.8035529900000000   F   F   F
  9.8623718300000007  8.3544477399999995 15.2040605600000003   F   F   F
 11.2712820899999997 10.7616614899999998 15.6045681199999997   F   F   F
  9.8623718300000007 13.1688752499999993 16.0050756900000017   F   F   F
  9.8623718300000007  1.5576089000000000 16.4055832600000002   F   F   F
 11.2712820899999997  3.9648226599999998 16.8060908299999987   F   F   F
  9.8623718300000007  6.3720364099999998 17.2065984000000007   F   F   F
 11.2712820899999997  8.7792501600000001 17.6071059699999992   F   F   F
  9.8623718300000007 11.1864639199999996 18.0076135400000013   F   F   F
 11.2712820899999997 13.5936776699999999 18.4081211099999997   F   F   F
 11.2712820899999997  1.9824113299999999 18.8086286800000018   T   T   T
  9.8623718300000007  4.3896250800000001 19.2091362500000002   T   T   T
 11.2712820899999997  6.7968388400000004 19.6096438199999987   T   T   T
  9.8623718300000007  9.2040525899999999 20.0101513900000008   T   T   T
 11.2712820899999997 11.6112663499999993 20.4106589599999992   T   T   T
 14.0891026200000002  3.1152177999999999 12.0000000000000000   F   F   F
 12.6801923500000004  5.5224315600000002 12.4005075700000003   F   F   F
 14.0891026200000002  7.9296453099999997 12.8010151400000005   F   F   F
 12.6801923500000004 10.3368590699999992 13.2015227100000008   F   F   F
 14.0891026200000002 12.7440728199999995 13.6020302799999993   F   F   F
 14.0891026200000002  1.1328064700000000 14.0025378499999995   F   F   F
 12.6801923500000004  3.5400202300000001 14.4030454199999998   F   F   F
 14.0891026200000002  5.9472339800000000 14.8035529900000000   F   F   F
 12.6801923500000004  8.3544477399999995 15.2040605600000003   F   F   F
 14.0891026200000002 10.7616614899999998 15.6045681199999997   F   F   F
 12.6801923500000004 13.1688752499999993 16.0050756900000017   F   F   F
 12.6801923500000004  1.5576089000000000 16.4055832600000002   F   F   F
 14.0891026200000002  3.9648226599999998 16.8060908299999987   F   F   F
 12.6801923500000004  6.3720364099999998 17.2065984000000007   F   F   F
 14.0891026200000002  8.7792501600000001 17.6071059699999992   F   F   F
 12.6801923500000004 11.1864639199999996 18.0076135400000013   F   F   F
 14.0891026200000002 13.5936776699999999 18.4081211099999997   F   F   F
 14.0891026200000002  1.9824113299999999 18.8086286800000018   T   T   T
 12.6801923500000004  4.3896250800000001 19.2091362500000002   T   T   T
 14.0891026200000002  6.7968388400000004 19.6096438199999987   T   T   T
 12.6801923500000004  9.2040525899999999 20.0101513900000008   T   T   T
 14.0891026200000002 11.6112663499999993 20.4106589599999992   T   T   T
 16.9069231400000000  3.1152177999999999 12.0000000000000000   F   F   F
 15.4980128799999992  5.5224315600000002 12.4005075700000003   F   F   F
 16.9069231400000000  7.9296453099999997 12.8010151400000005   F   F   F
 15.4980128799999992 10.3368590699999992 13.2015227100000008   F   F   F
 16.9069231400000000 12.7440728199999995 13.6020302799999993   F   F   F
 16.9069231400000000  1.1328064700000000 14.0025378499999995   F   F   F
 15.4980128799999992  3.5400202300000001 14.4030454199999998   F   F   F
 16.9069231400000000  5.9472339800000000 14.8035529900000000   F   F   F
 15.4980128799999992  8.3544477399999995 15.2040605600000003   F   F   F
 16.9069231400000000 10.7616614899999998 15.6045681199999997   F   F   F
 15.4980128799999992 13.1688752499999993 16.0050756900000017   F   F   F
 15.4980128799999992  1.5576089000000000 16.4055832600000002   F   F   F
 16.9069231400000000  3.9648226599999998 16.8060908299999987   F   F   F
 15.4980128799999992  6.3720364099999998 17.2065984000000007   F   F   F
 16.9069231400000000  8.7792501600000001 17.6071059699999992   F   F   F
 15.4980128799999992 11.1864639199999996 18.0076135400000013   F   F   F
 16.9069231400000000 13.5936776699999999 18.4081211099999997   F   F   F
 16.9069231400000000  1.9824113299999999 18.8086286800000018   T   T   T
 15.4980128799999992  4.3896250800000001 19.2091362500000002   T   T   T
 16.9069231400000000  6.7968388400000004 19.6096438199999987   T   T   T
 15.4980128799999992  9.2040525899999999 20.0101513900000008   T   T   T
 16.9069231400000000 11.6112663499999993 20.4106589599999992   T   T   T
 14.0891026200000002  0.0000000000000000 20.8111665300000013   T   T   T
  4.1730703978231283  2.2415526665547367 20.9749875413913252   T   T   T
  5.5542917889581611 -0.1349523406470065 20.6191989694802480   T   T   T
  1.4408239672330703  2.2508293468947675 20.9853187232406597   T   T   T
  4.1730703978231283  2.2415526665547367 24.5501575413913251   T   T   T
  4.1730703978231283  2.2415526665547367 23.3998175413913252   T   T   T
